0,453,180,500,398,348,317,347,56,157,82
453,0,108,539,546,249,372,117,388,97,457
180,108,0,100,130,380,364,546,288,343,471
500,539,100,0,386,430,429,493,511,236,521
398,546,130,386,0,221,489,377,554,74,346
348,249,380,430,221,0,511,537,475,302,216
317,372,364,429,489,511,0,94,389,427,104
347,117,546,493,377,537,94,0,161,170,446
56,388,288,511,554,475,389,161,0,473,134
157,97,343,236,74,302,427,170,473,0,464
82,457,471,521,346,216,104,446,134,464,0